results/res_prop_muc/res_Cimatti_mathsat_cores/QF_LIA/MULTIPLIER_8.msat.smt.smt2.out
### boolMucExtractionTime 83410347
